50

100 50 317
100 35 311
96 46 291
94 20 436
90 3 412
88 24 450
87 30 331
85 40 317
83 23 420
81 9 409
80 25 254
80 10 271
77 23 399
74 6 344
65 17 225
62 3 330
62 16 330
62 17 366
61 25 365
59 1 374
59 13 253
57 29 264
54 17 421
51 2 440
45 10 373
45 18 421
40 12 233
38 10 413
37 6 366
37 8 320
37 17 424
36 13 412
29 7 420
29 5 324
27 9 341
26 7 257
22 2 118
22 11 423
21 1 445
17 3 274
14 7 151
14 7 192
8 2 266
7 4 384
6 3 116
5 2 22
5 2 226
3 2 346
3 2 365
1 1 282
